<number of tasks>
53

<cycle time>
2806

<task times>
1 971
2 142
3 142
4 142
5 103
6 96
7 99
8 1207
9 160
10 180
11 82
12 60
13 112
14 420
15 1556
16 236
17 259
18 125
19 601
20 80
21 80
22 70
23 89
24 89
25 105
26 330
27 132
28 69
29 99
30 70
31 70
32 158
33 191
34 70
35 53
36 50
37 125
38 353
39 70
40 128
41 65
42 1775
43 91
44 91
45 113
46 487
47 138
48 80
49 80
50 65
51 40
52 742
53 1085

<precedence relations>
1,2
1,3
1,4
1,5
1,6
1,7
2,36
3,36
4,9
5,9
6,9
7,9
8,9
9,10
10,11
11,12
12,13
12,14
12,15
13,16
13,17
13,18
14,22
15,16
15,17
16,29
16,30
16,31
17,19
18,42
19,20
19,21
19,22
20,23
21,24
22,25
23,36
24,36
25,26
26,27
27,28
28,29
28,30
28,31
28,32
28,33
28,34
29,35
30,35
31,35
32,35
33,35
34,35
35,36
36,37
37,38
37,39
37,40
38,41
39,41
40,41
41,42
42,43
42,44
42,45
42,46
42,47
43,48
44,49
45,51
45,52
46,50
47,51
47,52
48,51
48,52
49,51
49,52
50,51
50,52
51,53
52,53

<setup times forward>
1,2:81
1,3:31
1,4:28
1,5:19
1,6:45
1,7:3
1,8:70
2,3:112
2,4:53
2,5:62
2,6:126
2,7:84
2,8:151
2,9:39
2,10:110
2,11:171
2,12:92
2,13:60
2,14:24
2,15:184
2,16:174
2,17:7
2,18:101
2,19:63
2,20:26
2,21:30
2,22:150
2,23:35
2,24:102
2,25:116
2,26:158
2,27:196
2,28:64
2,29:175
2,30:86
2,31:27
2,32:11
2,33:79
2,34:82
2,35:192
2,36:58
3,2:112
3,4:59
3,5:50
3,6:14
3,7:28
3,8:39
3,9:73
3,10:2
3,11:59
3,12:20
3,13:52
3,14:88
3,15:72
3,16:62
3,17:105
3,18:11
3,19:49
3,20:86
3,21:82
3,22:38
3,23:77
3,24:10
3,25:4
3,26:46
3,27:84
3,28:48
3,29:63
3,30:26
3,31:85
3,32:101
3,33:33
3,34:30
3,35:80
3,36:54
4,2:53
4,3:59
4,5:9
4,6:73
4,7:31
4,8:98
4,9:14
5,2:62
5,3:50
5,4:9
5,6:64
5,7:22
5,8:89
5,9:23
6,2:126
6,3:14
6,4:73
6,5:64
6,7:42
6,8:25
6,9:87
7,2:84
7,3:28
7,4:31
7,5:22
7,6:42
7,8:67
7,9:45
8,1:70
8,2:151
8,3:39
8,4:98
8,5:89
8,6:25
8,7:67
8,9:112
9,2:39
9,3:73
9,10:71
10,2:110
10,3:2
10,11:61
11,2:171
11,3:59
11,12:79
12,2:92
12,3:20
12,13:32
12,14:68
12,15:92
13,2:60
13,3:52
13,14:36
13,15:124
13,16:114
13,17:53
13,18:41
14,2:24
14,3:88
14,13:36
14,15:160
14,16:150
14,17:17
14,18:77
14,19:39
14,20:2
14,21:6
14,22:126
14,23:11
14,24:78
15,2:184
15,3:72
15,13:124
15,14:160
15,16:10
15,17:177
15,18:83
16,2:174
16,3:62
16,14:150
16,17:167
16,18:73
16,19:111
16,20:148
16,21:144
16,22:24
16,23:139
16,24:72
16,25:58
16,26:16
16,27:22
16,28:110
16,29:1
16,30:88
16,31:147
16,32:163
16,33:95
16,34:92
17,2:7
17,3:105
17,14:17
17,16:167
17,18:94
17,19:56
18,2:101
18,3:11
18,14:77
18,15:83
18,16:73
18,17:94
18,19:38
18,20:75
18,21:71
18,22:49
18,23:66
18,24:1
18,25:15
18,26:57
18,27:95
18,28:37
18,29:74
18,30:15
18,31:74
18,32:90
18,33:22
18,34:19
18,35:91
18,36:43
18,37:64
18,38:93
18,39:7
18,40:53
18,41:64
18,42:93
19,2:63
19,3:49
19,14:39
19,16:111
19,18:38
19,20:37
19,21:33
19,22:87
20,2:26
20,3:86
20,14:2
20,16:148
20,18:75
20,21:4
20,22:124
20,23:9
20,24:76
20,25:90
20,26:132
20,27:170
20,28:38
20,29:149
20,30:60
20,31:1
20,32:15
20,33:53
20,34:56
20,35:166
21,2:30
21,3:82
21,14:6
21,16:144
21,18:71
21,20:4
21,22:120
21,23:5
21,24:72
21,25:86
21,26:128
21,27:166
21,28:34
21,29:145
21,30:56
21,31:3
21,32:19
21,33:49
21,34:52
21,35:162
22,2:150
22,3:38
22,16:24
22,18:49
22,20:124
22,21:120
22,23:115
22,24:48
22,25:34
23,2:35
23,3:77
23,14:11
23,16:139
23,18:66
23,21:5
23,22:115
23,24:67
23,25:81
23,26:123
23,27:161
23,28:29
23,29:140
23,30:51
23,31:8
23,32:24
23,33:44
23,34:47
23,35:157
23,36:23
24,2:102
24,3:10
24,14:78
24,16:72
24,18:1
24,20:76
24,22:48
24,23:67
24,25:14
24,26:56
24,27:94
24,28:38
24,29:73
24,30:16
24,31:75
24,32:91
24,33:23
24,34:20
24,35:90
24,36:44
25,2:116
25,3:4
25,16:58
25,18:15
25,20:90
25,21:86
25,23:81
25,24:14
25,26:42
26,2:158
26,3:46
26,16:16
26,18:57
26,20:132
26,21:128
26,23:123
26,24:56
26,27:38
27,2:196
27,3:84
27,16:22
27,18:95
27,20:170
27,21:166
27,23:161
27,24:94
27,28:132
28,2:64
28,3:48
28,16:110
28,18:37
28,20:38
28,21:34
28,23:29
28,24:38
28,29:111
28,30:22
28,31:37
28,32:53
28,33:15
28,34:18
29,2:175
29,3:63
29,18:74
29,20:149
29,21:145
29,23:140
29,24:73
29,30:89
29,31:148
29,32:164
29,33:96
29,34:93
29,35:17
30,2:86
30,3:26
30,18:15
30,20:60
30,21:56
30,23:51
30,24:16
30,29:89
30,31:59
30,32:75
30,33:7
30,34:4
30,35:106
31,2:27
31,3:85
31,18:74
31,20:1
31,21:3
31,23:8
31,24:75
31,29:148
31,30:59
31,32:16
31,33:52
31,34:55
31,35:165
32,2:11
32,3:101
32,16:163
32,18:90
32,20:15
32,21:19
32,23:24
32,24:91
32,29:164
32,30:75
32,31:16
32,33:68
32,34:71
32,35:181
33,2:79
33,3:33
33,16:95
33,18:22
33,20:53
33,21:49
33,23:44
33,24:23
33,29:96
33,30:7
33,31:52
33,32:68
33,34:3
33,35:113
34,2:82
34,3:30
34,16:92
34,18:19
34,20:56
34,21:52
34,23:47
34,24:20
34,29:93
34,30:4
34,31:55
34,32:71
34,33:3
34,35:110
35,2:192
35,3:80
35,18:91
35,20:166
35,21:162
35,23:157
35,24:90
35,36:134
36,18:43
36,37:107
37,18:64
37,38:157
37,39:57
37,40:11
38,18:93
38,39:100
38,40:146
38,41:157
39,18:7
39,38:100
39,40:46
39,41:57
40,18:53
40,38:146
40,39:46
40,41:11
41,18:64
41,42:29
42,43:121
42,44:97
42,45:83
42,46:155
42,47:56
43,44:24
43,45:38
43,46:34
43,47:65
43,48:79
43,49:39
43,50:38
44,43:24
44,45:14
44,46:58
44,47:41
44,48:55
44,49:15
44,50:62
45,43:38
45,44:14
45,46:72
45,47:27
45,48:41
45,49:1
45,50:76
45,51:35
45,52:53
46,43:34
46,44:58
46,45:72
46,47:99
46,48:113
46,49:73
46,50:4
47,43:65
47,44:41
47,45:27
47,46:99
47,48:14
47,49:26
47,50:103
47,51:62
47,52:26
48,44:55
48,45:41
48,46:113
48,47:14
48,49:40
48,50:117
48,51:76
48,52:12
49,43:39
49,45:1
49,46:73
49,47:26
49,48:40
49,50:77
49,51:36
49,52:52
50,43:38
50,44:62
50,45:76
50,47:103
50,48:117
50,49:77
50,51:41
50,52:129
51,52:88
51,53:2
52,51:88
52,53:90

<setup times backward>
1,1:197
1,8:267
2,1:278
2,2:197
2,3:309
2,4:250
2,5:259
2,6:323
2,7:281
2,8:348
2,9:236
2,10:307
2,11:368
2,12:289
2,13:257
2,14:221
2,15:381
2,16:371
2,17:204
2,18:298
2,19:260
2,20:223
2,21:227
2,22:347
2,23:232
2,24:299
2,25:313
2,26:355
2,27:393
2,28:261
2,29:372
2,30:283
2,31:224
2,32:208
2,33:276
2,34:279
2,35:389
3,1:166
3,2:85
3,3:197
3,4:138
3,5:147
3,6:211
3,7:169
3,8:236
3,9:124
3,10:195
3,11:256
3,12:177
3,13:145
3,14:109
3,15:269
3,16:259
3,17:92
3,18:186
3,19:148
3,20:111
3,21:115
3,22:235
3,23:120
3,24:187
3,25:201
3,26:243
3,27:281
3,28:149
3,29:260
3,30:171
3,31:112
3,32:96
3,33:164
3,34:167
3,35:277
4,1:225
4,2:144
4,3:256
4,4:197
4,5:206
4,6:270
4,7:228
4,8:295
5,1:216
5,2:135
5,3:247
5,4:188
5,5:197
5,6:261
5,7:219
5,8:286
6,1:152
6,2:71
6,3:183
6,4:124
6,5:133
6,6:197
6,7:155
6,8:222
7,1:194
7,2:113
7,3:225
7,4:166
7,5:175
7,6:239
7,7:197
7,8:264
8,1:127
8,2:46
8,3:158
8,4:99
8,5:108
8,6:172
8,7:130
8,8:197
9,1:239
9,2:158
9,3:270
9,4:211
9,5:220
9,6:284
9,7:242
9,8:309
9,9:197
10,1:168
10,2:87
10,3:199
10,4:140
10,5:149
10,6:213
10,7:171
10,8:238
10,9:126
10,10:197
11,1:107
11,2:26
11,3:138
11,4:79
11,5:88
11,6:152
11,7:110
11,8:177
11,9:65
11,10:136
11,11:197
12,1:186
12,2:105
12,3:217
12,4:158
12,5:167
12,6:231
12,7:189
12,8:256
12,9:144
12,10:215
12,11:276
12,12:197
13,1:218
13,2:137
13,3:249
13,4:190
13,5:199
13,6:263
13,7:221
13,8:288
13,9:176
13,10:247
13,11:308
13,12:229
13,13:197
13,14:161
13,15:321
14,1:254
14,2:173
14,3:285
14,4:226
14,5:235
14,6:299
14,7:257
14,8:324
14,9:212
14,10:283
14,11:344
14,12:265
14,13:233
14,14:197
14,15:357
14,16:347
14,17:180
14,18:274
14,19:236
14,20:199
14,21:203
14,23:208
14,24:275
15,1:94
15,2:13
15,3:125
15,4:66
15,5:75
15,6:139
15,7:97
15,8:164
15,9:52
15,10:123
15,11:184
15,12:105
15,13:73
15,14:37
15,15:197
15,18:114
16,1:104
16,2:23
16,3:135
16,4:76
16,5:85
16,6:149
16,7:107
16,8:174
16,9:62
16,10:133
16,11:194
16,12:115
16,13:83
16,14:47
16,15:207
16,16:197
16,17:30
16,18:124
16,19:86
16,20:49
16,21:53
16,22:173
16,23:58
16,24:125
16,25:139
16,26:181
16,27:219
16,28:87
16,32:34
16,33:102
16,34:105
17,1:271
17,2:190
17,3:302
17,4:243
17,5:252
17,6:316
17,7:274
17,8:341
17,9:229
17,10:300
17,11:361
17,12:282
17,13:250
17,14:214
17,15:374
17,16:364
17,17:197
17,18:291
18,1:177
18,2:96
18,3:208
18,4:149
18,5:158
18,6:222
18,7:180
18,8:247
18,9:135
18,10:206
18,11:267
18,12:188
18,13:156
18,14:120
18,15:280
18,16:270
18,17:103
18,18:197
18,19:159
18,20:122
18,21:126
18,22:246
18,23:131
18,24:198
18,25:212
18,26:254
18,27:292
18,28:160
18,29:271
18,30:182
18,31:123
18,32:107
18,33:175
18,34:178
18,35:288
18,36:154
18,37:261
18,38:104
18,39:204
18,40:250
18,41:261
19,1:215
19,2:134
19,3:246
19,4:187
19,5:196
19,6:260
19,7:218
19,8:285
19,9:173
19,10:244
19,11:305
19,12:226
19,13:194
19,14:158
19,15:318
19,16:308
19,17:141
19,18:235
19,19:197
20,1:252
20,2:171
20,3:283
20,4:224
20,5:233
20,6:297
20,7:255
20,8:322
20,9:210
20,10:281
20,11:342
20,12:263
20,13:231
20,14:195
20,15:355
20,16:345
20,17:178
20,18:272
20,19:234
20,20:197
20,21:201
20,22:321
20,24:273
20,25:287
20,26:329
20,27:367
20,28:235
20,29:346
20,30:257
20,31:198
20,32:182
20,33:250
20,34:253
20,35:363
21,1:248
21,2:167
21,3:279
21,4:220
21,5:229
21,6:293
21,7:251
21,8:318
21,9:206
21,10:277
21,11:338
21,12:259
21,13:227
21,14:191
21,15:351
21,16:341
21,17:174
21,18:268
21,19:230
21,20:193
21,21:197
21,22:317
21,23:202
21,25:283
21,26:325
21,27:363
21,28:231
21,29:342
21,30:253
21,31:194
21,32:178
21,33:246
21,34:249
21,35:359
22,1:128
22,2:47
22,3:159
22,4:100
22,5:109
22,6:173
22,7:131
22,8:198
22,9:86
22,10:157
22,11:218
22,12:139
22,13:107
22,14:71
22,15:231
22,16:221
22,17:54
22,18:148
22,19:110
22,20:73
22,21:77
22,22:197
22,23:82
22,24:149
23,1:243
23,2:162
23,3:274
23,4:215
23,5:224
23,6:288
23,7:246
23,8:313
23,9:201
23,10:272
23,11:333
23,12:254
23,13:222
23,14:186
23,15:346
23,16:336
23,17:169
23,18:263
23,19:225
23,20:188
23,21:192
23,22:312
23,23:197
23,24:264
23,25:278
23,26:320
23,27:358
23,28:226
23,29:337
23,30:248
23,31:189
23,32:173
23,33:241
23,34:244
23,35:354
24,1:176
24,2:95
24,3:207
24,4:148
24,5:157
24,6:221
24,7:179
24,8:246
24,9:134
24,10:205
24,11:266
24,12:187
24,13:155
24,14:119
24,15:279
24,16:269
24,17:102
24,18:196
24,19:158
24,20:121
24,21:125
24,22:245
24,23:130
24,24:197
24,25:211
24,26:253
24,27:291
24,28:159
24,29:270
24,30:181
24,31:122
24,32:106
24,33:174
24,34:177
24,35:287
25,1:162
25,2:81
25,3:193
25,4:134
25,5:143
25,6:207
25,7:165
25,8:232
25,9:120
25,10:191
25,11:252
25,12:173
25,13:141
25,14:105
25,15:265
25,16:255
25,17:88
25,18:182
25,19:144
25,20:107
25,21:111
25,22:231
25,23:116
25,24:183
25,25:197
26,1:120
26,2:39
26,3:151
26,4:92
26,5:101
26,6:165
26,7:123
26,8:190
26,9:78
26,10:149
26,11:210
26,12:131
26,13:99
26,14:63
26,15:223
26,16:213
26,17:46
26,18:140
26,19:102
26,20:65
26,21:69
26,22:189
26,23:74
26,24:141
26,25:155
26,26:197
27,1:82
27,2:1
27,3:113
27,4:54
27,5:63
27,6:127
27,7:85
27,8:152
27,9:40
27,10:111
27,11:172
27,12:93
27,13:61
27,14:25
27,15:185
27,16:175
27,17:8
27,18:102
27,19:64
27,20:27
27,21:31
27,22:151
27,23:36
27,24:103
27,25:117
27,26:159
27,27:197
28,1:214
28,2:133
28,3:245
28,4:186
28,5:195
28,6:259
28,7:217
28,8:284
28,9:172
28,10:243
28,11:304
28,12:225
28,13:193
28,14:157
28,15:317
28,16:307
28,17:140
28,18:234
28,19:196
28,20:159
28,21:163
28,22:283
28,23:168
28,24:235
28,25:249
28,26:291
28,27:329
28,28:197
29,1:103
29,2:22
29,3:134
29,4:75
29,5:84
29,6:148
29,7:106
29,8:173
29,9:61
29,10:132
29,11:193
29,12:114
29,13:82
29,14:46
29,15:206
29,16:196
29,17:29
29,18:123
29,19:85
29,20:48
29,21:52
29,22:172
29,23:57
29,24:124
29,25:138
29,26:180
29,27:218
29,28:86
29,29:197
29,30:108
29,31:49
29,32:33
29,33:101
29,34:104
30,1:192
30,2:111
30,3:223
30,4:164
30,5:173
30,6:237
30,7:195
30,8:262
30,9:150
30,10:221
30,11:282
30,12:203
30,13:171
30,14:135
30,15:295
30,16:285
30,17:118
30,18:212
30,19:174
30,20:137
30,21:141
30,22:261
30,23:146
30,24:213
30,25:227
30,26:269
30,27:307
30,28:175
30,29:286
30,30:197
30,31:138
30,32:122
30,33:190
30,34:193
31,1:251
31,2:170
31,3:282
31,4:223
31,5:232
31,6:296
31,7:254
31,8:321
31,9:209
31,10:280
31,11:341
31,12:262
31,13:230
31,14:194
31,15:354
31,16:344
31,17:177
31,18:271
31,19:233
31,20:196
31,21:200
31,22:320
31,23:205
31,24:272
31,25:286
31,26:328
31,27:366
31,28:234
31,29:345
31,30:256
31,31:197
31,32:181
31,33:249
31,34:252
32,1:267
32,2:186
32,3:298
32,4:239
32,5:248
32,6:312
32,7:270
32,8:337
32,9:225
32,10:296
32,11:357
32,12:278
32,13:246
32,14:210
32,15:370
32,16:360
32,17:193
32,18:287
32,19:249
32,20:212
32,21:216
32,22:336
32,23:221
32,24:288
32,25:302
32,26:344
32,27:382
32,28:250
32,29:361
32,30:272
32,31:213
32,32:197
32,33:265
32,34:268
33,1:199
33,2:118
33,3:230
33,4:171
33,5:180
33,6:244
33,7:202
33,8:269
33,9:157
33,10:228
33,11:289
33,12:210
33,13:178
33,14:142
33,15:302
33,16:292
33,17:125
33,18:219
33,19:181
33,20:144
33,21:148
33,22:268
33,23:153
33,24:220
33,25:234
33,26:276
33,27:314
33,28:182
33,29:293
33,30:204
33,31:145
33,32:129
33,33:197
33,34:200
34,1:196
34,2:115
34,3:227
34,4:168
34,5:177
34,6:241
34,7:199
34,8:266
34,9:154
34,10:225
34,11:286
34,12:207
34,13:175
34,14:139
34,15:299
34,16:289
34,17:122
34,18:216
34,19:178
34,20:141
34,21:145
34,22:265
34,23:150
34,24:217
34,25:231
34,26:273
34,27:311
34,28:179
34,29:290
34,30:201
34,31:142
34,32:126
34,33:194
34,34:197
35,1:86
35,2:5
35,3:117
35,4:58
35,5:67
35,6:131
35,7:89
35,8:156
35,9:44
35,10:115
35,11:176
35,12:97
35,13:65
35,14:29
35,15:189
35,16:179
35,17:12
35,18:106
35,19:68
35,20:31
35,21:35
35,22:155
35,23:40
35,24:107
35,25:121
35,26:163
35,27:201
35,28:69
35,29:180
35,30:91
35,31:32
35,32:16
35,33:84
35,34:87
35,35:197
36,1:220
36,2:139
36,3:251
36,4:192
36,5:201
36,6:265
36,7:223
36,8:290
36,9:178
36,10:249
36,11:310
36,12:231
36,13:199
36,14:163
36,15:323
36,16:313
36,17:146
36,18:240
36,19:202
36,20:165
36,21:169
36,22:289
36,23:174
36,24:241
36,25:255
36,26:297
36,27:335
36,28:203
36,29:314
36,30:225
36,31:166
36,32:150
36,33:218
36,34:221
36,35:331
36,36:197
37,1:113
37,2:32
37,3:144
37,4:85
37,5:94
37,6:158
37,7:116
37,8:183
37,9:71
37,10:142
37,11:203
37,12:124
37,13:92
37,14:56
37,15:216
37,16:206
37,17:39
37,18:133
37,19:95
37,20:58
37,21:62
37,22:182
37,23:67
37,24:134
37,25:148
37,26:190
37,27:228
37,28:96
37,29:207
37,30:118
37,31:59
37,32:43
37,33:111
37,34:114
37,35:224
37,36:90
37,37:197
38,1:270
38,2:189
38,3:301
38,4:242
38,5:251
38,6:315
38,7:273
38,8:340
38,9:228
38,10:299
38,11:360
38,12:281
38,13:249
38,14:213
38,15:373
38,16:363
38,17:196
38,18:290
38,19:252
38,20:215
38,21:219
38,22:339
38,23:224
38,24:291
38,25:305
38,26:347
38,27:385
38,28:253
38,29:364
38,30:275
38,31:216
38,32:200
38,33:268
38,34:271
38,35:381
38,36:247
38,37:354
38,38:197
38,39:297
38,40:343
39,1:170
39,2:89
39,3:201
39,4:142
39,5:151
39,6:215
39,7:173
39,8:240
39,9:128
39,10:199
39,11:260
39,12:181
39,13:149
39,14:113
39,15:273
39,16:263
39,17:96
39,18:190
39,19:152
39,20:115
39,21:119
39,22:239
39,23:124
39,24:191
39,25:205
39,26:247
39,27:285
39,28:153
39,29:264
39,30:175
39,31:116
39,32:100
39,33:168
39,34:171
39,35:281
39,36:147
39,37:254
39,38:97
39,39:197
39,40:243
40,1:124
40,2:43
40,3:155
40,4:96
40,5:105
40,6:169
40,7:127
40,8:194
40,9:82
40,10:153
40,11:214
40,12:135
40,13:103
40,14:67
40,15:227
40,16:217
40,17:50
40,18:144
40,19:106
40,20:69
40,21:73
40,22:193
40,23:78
40,24:145
40,25:159
40,26:201
40,27:239
40,28:107
40,29:218
40,30:129
40,31:70
40,32:54
40,33:122
40,34:125
40,35:235
40,36:101
40,37:208
40,38:51
40,39:151
40,40:197
41,1:113
41,2:32
41,3:144
41,4:85
41,5:94
41,6:158
41,7:116
41,8:183
41,9:71
41,10:142
41,11:203
41,12:124
41,13:92
41,14:56
41,15:216
41,16:206
41,17:39
41,18:133
41,19:95
41,20:58
41,21:62
41,22:182
41,23:67
41,24:134
41,25:148
41,26:190
41,27:228
41,28:96
41,29:207
41,30:118
41,31:59
41,32:43
41,33:111
41,34:114
41,35:224
41,36:90
41,37:197
41,38:40
41,39:140
41,40:186
41,41:197
42,1:84
42,2:3
42,3:115
42,4:56
42,5:65
42,6:129
42,7:87
42,8:154
42,9:42
42,10:113
42,11:174
42,12:95
42,13:63
42,14:27
42,15:187
42,16:177
42,17:10
42,18:104
42,19:66
42,20:29
42,21:33
42,22:153
42,23:38
42,24:105
42,25:119
42,26:161
42,27:199
42,28:67
42,29:178
42,30:89
42,31:30
42,32:14
42,33:82
42,34:85
42,35:195
42,36:61
42,37:168
42,38:11
42,39:111
42,40:157
42,41:168
42,42:197
43,1:205
43,2:124
43,3:236
43,4:177
43,5:186
43,6:250
43,7:208
43,8:275
43,9:163
43,10:234
43,11:295
43,12:216
43,13:184
43,14:148
43,15:308
43,16:298
43,17:131
43,18:225
43,19:187
43,20:150
43,21:154
43,22:274
43,23:159
43,24:226
43,25:240
43,26:282
43,27:320
43,28:188
43,29:299
43,30:210
43,31:151
43,32:135
43,33:203
43,34:206
43,35:316
43,36:182
43,37:289
43,38:132
43,39:232
43,40:278
43,41:289
43,42:318
43,43:197
43,44:221
43,45:235
43,46:163
43,47:262
43,49:236
43,50:159
44,1:181
44,2:100
44,3:212
44,4:153
44,5:162
44,6:226
44,7:184
44,8:251
44,9:139
44,10:210
44,11:271
44,12:192
44,13:160
44,14:124
44,15:284
44,16:274
44,17:107
44,18:201
44,19:163
44,20:126
44,21:130
44,22:250
44,23:135
44,24:202
44,25:216
44,26:258
44,27:296
44,28:164
44,29:275
44,30:186
44,31:127
44,32:111
44,33:179
44,34:182
44,35:292
44,36:158
44,37:265
44,38:108
44,39:208
44,40:254
44,41:265
44,42:294
44,43:173
44,44:197
44,45:211
44,46:139
44,47:238
44,48:252
44,50:135
45,1:167
45,2:86
45,3:198
45,4:139
45,5:148
45,6:212
45,7:170
45,8:237
45,9:125
45,10:196
45,11:257
45,12:178
45,13:146
45,14:110
45,15:270
45,16:260
45,17:93
45,18:187
45,19:149
45,20:112
45,21:116
45,22:236
45,23:121
45,24:188
45,25:202
45,26:244
45,27:282
45,28:150
45,29:261
45,30:172
45,31:113
45,32:97
45,33:165
45,34:168
45,35:278
45,36:144
45,37:251
45,38:94
45,39:194
45,40:240
45,41:251
45,42:280
45,43:159
45,44:183
45,45:197
45,46:125
45,47:224
45,48:238
45,49:198
45,50:121
46,1:239
46,2:158
46,3:270
46,4:211
46,5:220
46,6:284
46,7:242
46,8:309
46,9:197
46,10:268
46,11:329
46,12:250
46,13:218
46,14:182
46,15:342
46,16:332
46,17:165
46,18:259
46,19:221
46,20:184
46,21:188
46,22:308
46,23:193
46,24:260
46,25:274
46,26:316
46,27:354
46,28:222
46,29:333
46,30:244
46,31:185
46,32:169
46,33:237
46,34:240
46,35:350
46,36:216
46,37:323
46,38:166
46,39:266
46,40:312
46,41:323
46,42:352
46,43:231
46,44:255
46,45:269
46,46:197
46,47:296
46,48:310
46,49:270
47,1:140
47,2:59
47,3:171
47,4:112
47,5:121
47,6:185
47,7:143
47,8:210
47,9:98
47,10:169
47,11:230
47,12:151
47,13:119
47,14:83
47,15:243
47,16:233
47,17:66
47,18:160
47,19:122
47,20:85
47,21:89
47,22:209
47,23:94
47,24:161
47,25:175
47,26:217
47,27:255
47,28:123
47,29:234
47,30:145
47,31:86
47,32:70
47,33:138
47,34:141
47,35:251
47,36:117
47,37:224
47,38:67
47,39:167
47,40:213
47,41:224
47,42:253
47,43:132
47,44:156
47,45:170
47,46:98
47,47:197
47,48:211
47,49:171
47,50:94
48,1:126
48,2:45
48,3:157
48,4:98
48,5:107
48,6:171
48,7:129
48,8:196
48,9:84
48,10:155
48,11:216
48,12:137
48,13:105
48,14:69
48,15:229
48,16:219
48,17:52
48,18:146
48,19:108
48,20:71
48,21:75
48,22:195
48,23:80
48,24:147
48,25:161
48,26:203
48,27:241
48,28:109
48,29:220
48,30:131
48,31:72
48,32:56
48,33:124
48,34:127
48,35:237
48,36:103
48,37:210
48,38:53
48,39:153
48,40:199
48,41:210
48,42:239
48,43:118
48,44:142
48,45:156
48,46:84
48,47:183
48,48:197
48,49:157
48,50:80
49,1:166
49,2:85
49,3:197
49,4:138
49,5:147
49,6:211
49,7:169
49,8:236
49,9:124
49,10:195
49,11:256
49,12:177
49,13:145
49,14:109
49,15:269
49,16:259
49,17:92
49,18:186
49,19:148
49,20:111
49,21:115
49,22:235
49,23:120
49,24:187
49,25:201
49,26:243
49,27:281
49,28:149
49,29:260
49,30:171
49,31:112
49,32:96
49,33:164
49,34:167
49,35:277
49,36:143
49,37:250
49,38:93
49,39:193
49,40:239
49,41:250
49,42:279
49,43:158
49,44:182
49,45:196
49,46:124
49,47:223
49,48:237
49,49:197
49,50:120
50,1:243
50,2:162
50,3:274
50,4:215
50,5:224
50,6:288
50,7:246
50,8:313
50,9:201
50,10:272
50,11:333
50,12:254
50,13:222
50,14:186
50,15:346
50,16:336
50,17:169
50,18:263
50,19:225
50,20:188
50,21:192
50,22:312
50,23:197
50,24:264
50,25:278
50,26:320
50,27:358
50,28:226
50,29:337
50,30:248
50,31:189
50,32:173
50,33:241
50,34:244
50,35:354
50,36:220
50,37:327
50,38:170
50,39:270
50,40:316
50,41:327
50,42:356
50,43:235
50,44:259
50,45:273
50,46:201
50,47:300
50,48:314
50,49:274
50,50:197
51,1:202
51,2:121
51,3:233
51,4:174
51,5:183
51,6:247
51,7:205
51,8:272
51,9:160
51,10:231
51,11:292
51,12:213
51,13:181
51,14:145
51,15:305
51,16:295
51,17:128
51,18:222
51,19:184
51,20:147
51,21:151
51,22:271
51,23:156
51,24:223
51,25:237
51,26:279
51,27:317
51,28:185
51,29:296
51,30:207
51,31:148
51,32:132
51,33:200
51,34:203
51,35:313
51,36:179
51,37:286
51,38:129
51,39:229
51,40:275
51,41:286
51,42:315
51,43:194
51,44:218
51,45:232
51,46:160
51,47:259
51,48:273
51,49:233
51,50:156
51,51:197
51,52:285
52,1:114
52,2:33
52,3:145
52,4:86
52,5:95
52,6:159
52,7:117
52,8:184
52,9:72
52,10:143
52,11:204
52,12:125
52,13:93
52,14:57
52,15:217
52,16:207
52,17:40
52,18:134
52,19:96
52,20:59
52,21:63
52,22:183
52,23:68
52,24:135
52,25:149
52,26:191
52,27:229
52,28:97
52,29:208
52,30:119
52,31:60
52,32:44
52,33:112
52,34:115
52,35:225
52,36:91
52,37:198
52,38:41
52,39:141
52,40:187
52,41:198
52,42:227
52,43:106
52,44:130
52,45:144
52,46:72
52,47:171
52,48:185
52,49:145
52,50:68
52,51:109
52,52:197
53,1:204
53,2:123
53,3:235
53,4:176
53,5:185
53,6:249
53,7:207
53,8:274
53,9:162
53,10:233
53,11:294
53,12:215
53,13:183
53,14:147
53,15:307
53,16:297
53,17:130
53,18:224
53,19:186
53,20:149
53,21:153
53,22:273
53,23:158
53,24:225
53,25:239
53,26:281
53,27:319
53,28:187
53,29:298
53,30:209
53,31:150
53,32:134
53,33:202
53,34:205
53,35:315
53,36:181
53,37:288
53,38:131
53,39:231
53,40:277
53,41:288
53,42:317
53,43:196
53,44:220
53,45:234
53,46:162
53,47:261
53,48:275
53,49:235
53,50:158
53,51:199
53,52:287
53,53:197

<end>

<optimal SALBP-1 value>
6


<rand seed>
467321153

